10 23
1 2 0
1 3 1
1 4 0
1 5 1
1 6 0
1 7 0
1 8 0
1 9 1
1 10 0
2 3 0
2 4 0
2 5 1
2 6 0
2 7 1
2 8 0
2 9 1
2 10 1
3 4 0
3 5 1
3 6 1
3 7 0
3 8 1
3 9 1
3 10 1
4 5 1
4 6 1
4 7 0
4 8 0
4 9 1
4 10 0
5 6 0
5 7 1
5 8 1
5 9 1
5 10 1
6 7 0
6 8 0
6 9 0
6 10 1
7 8 0
7 9 0
7 10 1
8 9 1
8 10 1
9 10 0
